multiobj/solutions/Ter.8.2.1.00.1.out
1 2
1 0 2 6 7 3 4 5 
8739520 8739520 
